(declare-fun ExpandObjSwitcher () Real)
(declare-fun Constructed_Argument_t () String)
(declare-fun CreateAsClass () Bool)
(declare-fun Constructed_Argument () Bool)
(assert (= ExpandObjSwitcher 0.0))
(assert (= Constructed_Argument_t "boolean"))
(assert CreateAsClass)
(assert Constructed_Argument)
(check-sat)
